;test regex \s*((?:\S+\s+){1}\S+)\s*(?:\((?:.*?)\))?:\s*(\S*)\s*(\w+)
(declare-const X String)
(assert (str.in_re X (re.++ (re.* (re.union (str.to_re " ") (re.union (str.to_re "\u{0b}") (re.union (str.to_re "\u{0a}") (re.union (str.to_re "\u{0d}") (re.union (str.to_re "\u{09}") (str.to_re "\u{0c}"))))))) (re.++ (re.++ ((_ re.loop 1 1) (re.++ (re.+ (re.inter (re.diff re.allchar (str.to_re "\u{20}")) (re.inter (re.diff re.allchar (str.to_re "\u{0a}")) (re.inter (re.diff re.allchar (str.to_re "\u{0b}")) (re.inter (re.diff re.allchar (str.to_re "\u{0d}")) (re.inter (re.diff re.allchar (str.to_re "\u{09}")) (re.diff re.allchar (str.to_re "\u{0c}")))))))) (re.+ (re.union (str.to_re " ") (re.union (str.to_re "\u{0b}") (re.union (str.to_re "\u{0a}") (re.union (str.to_re "\u{0d}") (re.union (str.to_re "\u{09}") (str.to_re "\u{0c}"))))))))) (re.+ (re.inter (re.diff re.allchar (str.to_re "\u{20}")) (re.inter (re.diff re.allchar (str.to_re "\u{0a}")) (re.inter (re.diff re.allchar (str.to_re "\u{0b}")) (re.inter (re.diff re.allchar (str.to_re "\u{0d}")) (re.inter (re.diff re.allchar (str.to_re "\u{09}")) (re.diff re.allchar (str.to_re "\u{0c}"))))))))) (re.++ (re.* (re.union (str.to_re " ") (re.union (str.to_re "\u{0b}") (re.union (str.to_re "\u{0a}") (re.union (str.to_re "\u{0d}") (re.union (str.to_re "\u{09}") (str.to_re "\u{0c}"))))))) (re.++ (re.opt (re.++ (str.to_re "(") (re.++ (re.* (re.diff re.allchar (str.to_re "\n"))) (str.to_re ")")))) (re.++ (str.to_re ":") (re.++ (re.* (re.union (str.to_re " ") (re.union (str.to_re "\u{0b}") (re.union (str.to_re "\u{0a}") (re.union (str.to_re "\u{0d}") (re.union (str.to_re "\u{09}") (str.to_re "\u{0c}"))))))) (re.++ (re.* (re.inter (re.diff re.allchar (str.to_re "\u{20}")) (re.inter (re.diff re.allchar (str.to_re "\u{0a}")) (re.inter (re.diff re.allchar (str.to_re "\u{0b}")) (re.inter (re.diff re.allchar (str.to_re "\u{0d}")) (re.inter (re.diff re.allchar (str.to_re "\u{09}")) (re.diff re.allchar (str.to_re "\u{0c}")))))))) (re.++ (re.* (re.union (str.to_re " ") (re.union (str.to_re "\u{0b}") (re.union (str.to_re "\u{0a}") (re.union (str.to_re "\u{0d}") (re.union (str.to_re "\u{09}") (str.to_re "\u{0c}"))))))) (re.+ (re.union (re.range "a" "z") (re.union (re.range "A" "Z") (re.union (re.range "0" "9") (str.to_re "_")))))))))))))))
; sanitize danger characters:  < > ' " \ / &
(assert (not (str.in_re X (re.* (re.union (str.to_re "\u{3c}") (str.to_re "\u{3e}") (str.to_re "\u{27}") (str.to_re "\u{22}") (str.to_re "\u{5c}") (str.to_re "\u{2f}") (str.to_re "\u{26}"))))))
(assert (< 20 (str.len X)))
(check-sat)
(get-model)